0	172	33	159	78	157	85	86	99	76	94	
135	0	180	60	153	94	168	88	181	89	32	
113	81	0	71	139	125	71	134	144	190	62	
119	67	53	0	21	127	193	64	58	183	175	
29	104	74	200	0	36	111	136	194	156	78	
26	133	128	158	49	0	159	55	108	94	181	
109	77	66	193	98	170	0	154	183	124	150	
170	155	130	198	147	166	127	0	42	69	34	
20	143	97	22	135	32	145	57	0	152	104	
116	22	155	131	125	47	130	166	144	0	88	
72	199	171	154	40	178	156	172	67	47	0	
